(set-logic QF_BV)
(declare-fun a () (_ BitVec 4))
(declare-fun b () (_ BitVec 4))
(declare-fun c () (_ BitVec 4))
(declare-fun d () (_ BitVec 4))
(declare-fun x () (_ BitVec 4))
(assert (= x (bvadd a (bvadd b (bvadd c d)))))
(declare-fun c0 () (_ BitVec 4))
(declare-fun s0 () (_ BitVec 4))
(assert (= s0 (bvxor a b)))
(assert (= c0 (concat ((_ extract 2 0)(bvand a b))(_ bv0 1))))
(declare-fun c1 () (_ BitVec 4))
(declare-fun s1 () (_ BitVec 4))
(assert (= s1 (bvxor s0 (bvxor c0 c))))
(assert (= c1 (concat ((_ extract 2 0)
                (bvor (bvand s0 c0) (bvor (bvand s0 c) (bvand c0 c))))
		   (_ bv0 1))))
(declare-fun c2 () (_ BitVec 4))
(declare-fun s2 () (_ BitVec 4))
(assert (= s2 (bvxor s1 (bvxor c1 d))))
(assert (= c2 (concat ((_ extract 2 0)
                (bvor (bvand s1 c1) (bvor (bvand s1 d) (bvand c1 d))))
		   (_ bv0 1))))
(declare-fun y () (_ BitVec 4))
(assert (= y (bvadd s2 c2)))
(assert (distinct x y))
(check-sat)
(exit)
